param number_of_time_periods:= 3;
param number_of_generating_units:= 2;
param number_of_nodes := 2;
param number_of_lines := 3;

param generating_units_cost := 100 200 300;
param demand := 40 40 30 40
                250 200 200 150
                300 100 150 200
                ;
param lower_bound_power:= 20
param upper_bound_power:= 400

param maximum_flow:= 200

param lower_bound_ramping: = 100
param upper_bound_ramping:= 160
